(set-option :produce-models true)
(set-logic QF_UF)
(declare-fun p58() Bool)
(declare-fun p68() Bool)
(declare-fun p26() Bool)
(declare-fun p64() Bool)
(declare-fun p15() Bool)
(declare-fun p57() Bool)
(declare-fun p34() Bool)
(declare-fun p76() Bool)
(declare-fun p19() Bool)
(declare-fun p69() Bool)
(declare-fun p32() Bool)
(declare-fun p9() Bool)
(declare-fun p44() Bool)
(declare-fun p42() Bool)
(declare-fun p59() Bool)
(declare-fun p29() Bool)
(declare-fun p1() Bool)
(declare-fun p75() Bool)
(declare-fun p30() Bool)
(declare-fun p3() Bool)
(declare-fun p0() Bool)
(declare-fun p74() Bool)
(declare-fun p12() Bool)
(declare-fun p77() Bool)
(declare-fun p36() Bool)
(declare-fun p8() Bool)
(declare-fun p43() Bool)
(declare-fun p28() Bool)
(declare-fun p31() Bool)
(declare-fun p13() Bool)
(declare-fun p41() Bool)
(declare-fun p23() Bool)
(declare-fun p37() Bool)
(declare-fun p10() Bool)
(declare-fun p39() Bool)
(declare-fun p79() Bool)
(declare-fun p72() Bool)
(declare-fun p16() Bool)
(declare-fun p7() Bool)
(declare-fun p60() Bool)
(declare-fun p21() Bool)
(declare-fun p63() Bool)
(declare-fun p70() Bool)
(declare-fun p24() Bool)
(declare-fun p51() Bool)
(declare-fun p45() Bool)
(declare-fun p67() Bool)
(declare-fun p62() Bool)
(declare-fun p20() Bool)
(declare-fun p54() Bool)
(declare-fun p4() Bool)
(declare-fun p52() Bool)
(declare-fun p17() Bool)
(declare-fun p56() Bool)
(declare-fun p35() Bool)
(declare-fun p22() Bool)
(declare-fun p2() Bool)
(declare-fun p53() Bool)
(declare-fun p46() Bool)
(declare-fun p66() Bool)
(declare-fun p33() Bool)
(declare-fun p11() Bool)
(declare-fun p48() Bool)
(declare-fun p5() Bool)
(declare-fun p55() Bool)
(declare-fun p65() Bool)
(declare-fun p61() Bool)
(declare-fun p38() Bool)
(declare-fun p27() Bool)
(declare-fun p50() Bool)
(declare-fun p47() Bool)
(declare-fun p73() Bool)
(declare-fun p78() Bool)
(declare-fun p71() Bool)
(declare-fun p18() Bool)
(declare-fun p14() Bool)
(declare-fun p6() Bool)
(declare-fun p49() Bool)
(declare-fun p25() Bool)
(declare-fun p40() Bool)
(assert
(and (or (not p58) p68 (not p26)) (or p64 p15 p57) (or p34 p76 p76) (or (not p64) (not p19) p69) (or p57 p32 p9) (or p44 p42 p59) (or (not p29) (not p1) (not p76)) (or (not p75) p30 p3) (or p0 (not p74) p12) (or (not p77) (not p36) p8) (or p12 p43 p28) (or (not p31) p76 (not p13)) (or (not p41) p23 p37) (or p10 p39 (not p79)) (or p77 p72 p16) (or (not p10) p7 p60) (or (not p9) p28 (not p21)) (or p63 p74 p13) (or p70 p42 p36) (or (not p24) (not p51) p45) (or (not p67) (not p63) (not p72)) (or p62 (not p20) p15) (or p19 (not p54) (not p13)) (or (not p0) (not p4) p52) (or p17 p51 p56) (or (not p23) p35 (not p58)) (or p22 p2 (not p56)) (or (not p15) (not p17) (not p68)) (or p21 (not p26) p70) (or p60 p1 p1) (or p32 (not p20) (not p4)) (or (not p29) p34 p37) (or p22 p13 (not p60)) (or (not p75) p43 (not p42)) (or (not p53) (not p46) (not p66)) (or (not p33) p11 p9) (or (not p15) p30 (not p22)) (or (not p48) (not p5) p53) (or p70 (not p30) p20) (or p26 (not p75) (not p35)) (or (not p41) (not p22) p55) (or (not p30) (not p54) (not p65)) (or p15 (not p10) p42) (or p20 p62 (not p61)) (or (not p17) p65 p33) (or p2 (not p21) p5) (or (not p24) p64 (not p32)) (or p43 p67 p30) (or (not p29) (not p62) p52) (or (not p28) (not p37) p32) (or p0 (not p52) (not p13)) (or p24 p67 (not p13)) (or p48 (not p13) (not p63)) (or (not p51) (not p11) (not p69)) (or (not p45) p59 p62) (or p79 p38 (not p45)) (or p53 p57 p77) (or p27 p50 p47) (or p7 p13 p73) (or (not p73) (not p76) (not p78)) (or (not p64) p44 (not p15)) (or p78 p0 p4) (or p76 p64 (not p21)) (or (not p11) p61 p53) (or p41 (not p41) p16) (or p28 p64 p65) (or p38 (not p8) (not p77)) (or (not p11) (not p21) (not p0)) (or p74 p27 (not p78)) (or (not p72) p4 p42) (or (not p31) (not p34) (not p13)) (or p51 p55 (not p1)) (or (not p64) p52 (not p77)) (or p9 (not p77) (not p36)) (or (not p30) p56 (not p76)) (or (not p61) (not p52) (not p77)) (or p54 p41 p78) (or (not p65) (not p17) p24) (or (not p67) (not p7) (not p17)) (or p50 (not p16) (not p7)) (or p69 p67 p68) (or (not p22) p64 (not p78)) (or (not p37) (not p20) p42) (or p39 (not p26) p71) (or (not p48) (not p8) p79) (or p18 (not p76) p44) (or p68 (not p38) p78) (or p14 p30 p10) (or (not p53) (not p31) (not p10)) (or (not p16) (not p60) p18) (or p51 p38 p60) (or p77 (not p1) (not p45)) (or (not p6) p26 (not p71)) (or (not p62) (not p68) (not p44)) (or p21 p57 (not p4)) (or (not p5) (not p0) p67) (or p46 (not p68) (not p19)) (or (not p1) (not p59) p42) (or p63 (not p22) p11) (or (not p42) p12 p23) (or p39 p3 p45) (or p66 (not p33) (not p6)) (or p69 (not p75) (not p67)) (or p19 (not p78) p39) (or (not p64) p49 (not p24)) (or (not p43) (not p4) p75) (or p5 p34 (not p63)) (or (not p54) p11 (not p70)) (or p68 p76 p56) (or p53 p55 (not p7)) (or p9 (not p25) (not p62)) (or p10 (not p60) (not p37)) (or (not p14) (not p53) (not p49)) (or p41 p54 p21) (or p18 p39 p38) (or (not p17) (not p20) p71) (or (not p33) p60 p67) (or (not p72) p1 p17) (or p23 (not p67) (not p58)) (or p73 p71 p38) (or p12 p33 p10) (or (not p18) p76 (not p64)) (or (not p68) (not p71) (not p78)) (or p22 p76 (not p61)) (or p51 (not p31) (not p43)) (or p72 (not p71) p67) (or (not p55) p43 p29) (or p7 p22 (not p44)) (or p17 p11 (not p1)) (or (not p70) p24 (not p16)) (or (not p77) p68 p37) (or p74 (not p77) (not p26)) (or (not p18) p50 (not p45)) (or (not p40) (not p58) (not p6)) (or p67 p3 (not p50)) (or p6 p11 (not p35)) (or (not p53) p8 p21) (or (not p15) p8 (not p51)) (or p16 p66 p47) (or p75 (not p45) (not p71)) (or (not p7) (not p68) (not p59)) (or (not p56) p51 p75) (or p39 (not p2) (not p34)) (or p16 p65 p51) (or p2 (not p16) (not p71)) (or p66 p37 p47) (or (not p17) (not p72) (not p62)) (or p51 (not p78) p24) (or p77 (not p21) p71) (or (not p49) (not p24) (not p31)) (or p32 (not p14) p44) (or (not p14) (not p29) p29) (or (not p70) p61 (not p74)) (or p12 (not p31) (not p5)) (or (not p24) p78 p10) (or p2 p41 p42) (or (not p19) (not p57) (not p21)) (or p55 (not p39) (not p56)) (or p15 p2 p45) (or (not p12) (not p77) (not p26)) (or (not p30) p26 (not p53)) (or p38 (not p34) p1) (or p77 (not p31) (not p9)) (or (not p24) p19 (not p53)) (or (not p22) (not p37) p76) (or p7 p25 p37) (or (not p6) p72 p54) (or (not p23) (not p60) p16) (or (not p27) (not p22) p63) (or p2 (not p69) (not p72)) (or (not p75) p70 (not p7)) (or (not p73) (not p41) (not p58)) (or (not p58) p15 p68) (or p39 (not p1) p18) (or (not p24) (not p61) p59) (or (not p0) p12 (not p45)) (or p15 (not p17) (not p49)) (or p76 p54 (not p25)) (or p32 (not p68) (not p46)) (or (not p71) (not p35) (not p70)) (or p1 (not p48) (not p40)) (or p26 p76 p2) (or p12 p67 p49) (or (not p23) p43 p43) (or (not p15) (not p28) p38) (or (not p42) (not p0) p29) (or p41 (not p38) p61) (or (not p13) p5 (not p15)) (or (not p49) p35 p51) (or p9 (not p79) p68) (or p9 (not p41) p14) (or (not p1) p16 p59) (or (not p66) p12 p13) (or (not p77) (not p38) p8) (or (not p25) (not p66) p51) (or p14 p74 (not p19)) (or (not p49) p22 (not p37)) (or (not p11) (not p76) p48) (or (not p57) (not p3) p43) (or (not p51) p11 (not p58)) (or (not p15) (not p22) p52) (or p31 (not p22) p38) (or p18 (not p58) (not p51)) (or p11 (not p40) p12) (or (not p74) p39 p46) (or p78 (not p30) (not p23)) (or (not p9) p40 (not p52)) (or p22 (not p73) (not p32)) (or (not p65) (not p35) p12) (or (not p19) (not p40) (not p63)) (or p9 p37 p49) (or (not p59) (not p64) p15) (or (not p73) p23 p17) (or (not p29) p41 (not p55)) (or (not p38) p13 p5) (or p64 p31 (not p44)) (or (not p36) (not p76) (not p10)) (or p25 p60 (not p52)) (or (not p69) p60 p50) (or p1 (not p60) (not p40)) (or (not p42) p41 p33) (or (not p9) p27 (not p21)) (or (not p48) (not p29) p45) (or (not p18) p26 p74) (or p24 p30 (not p35)) (or (not p72) (not p16) (not p64)) (or (not p63) (not p9) (not p46)) (or p58 (not p31) p17) (or p13 (not p34) (not p69)) (or (not p16) (not p14) p18) (or (not p25) (not p19) (not p46)) (or p37 (not p38) p14) (or (not p76) (not p69) p46) (or (not p50) p72 p73) (or (not p33) p72 p0) (or (not p45) (not p8) p9) (or p4 p73 (not p22)) (or p41 p53 (not p39)) (or p69 p29 (not p73)) (or (not p29) p68 p22) (or (not p2) (not p35) p4) (or p4 (not p37) (not p29)) (or p58 (not p9) (not p19)) (or p57 p0 p29) (or (not p65) (not p7) p62) (or (not p70) p11 (not p41)) (or (not p10) p57 (not p68)) (or p54 p19 (not p28)) (or (not p16) p41 p2) (or p4 (not p79) p22) (or (not p23) p43 (not p70)) (or p43 (not p56) p51) (or p58 p7 (not p57)) (or p50 p56 p7) (or p16 p74 p23) (or (not p58) p9 p35) (or p76 (not p43) (not p36)) (or p18 (not p43) p70) (or (not p9) p16 p71) (or (not p23) (not p77) p74) (or (not p39) (not p38) p7) (or p2 p44 p23) (or (not p49) (not p19) (not p25)) (or (not p74) p55 p70) (or p78 p63 p58) (or p72 (not p55) p44) (or (not p36) (not p30) (not p58)) (or p43 p69 (not p12)) (or (not p1) (not p18) (not p54)) (or p52 (not p49) (not p45)) (or (not p9) p73 p54) (or p33 (not p41) p77) (or (not p64) (not p61) (not p5)) (or (not p74) p41 (not p30)) (or p29 p59 (not p66)) (or p63 p64 (not p77)) (or (not p68) p29 p11) (or p67 (not p46) p53) (or p69 (not p35) (not p11)) (or (not p53) p52 p24) (or (not p0) (not p30) (not p9)) (or p7 (not p21) (not p78)) (or (not p10) p79 p20) (or (not p72) p40 p26) (or (not p61) (not p57) p25) (or p50 (not p0) (not p5)) (or (not p54) p28 (not p6)) (or (not p54) (not p71) (not p66)) (or (not p75) p64 p59) (or p71 p52 (not p55)) (or p53 p68 p74) (or p17 p1 (not p43)) (or (not p27) p60 p7) (or p13 (not p64) p28) (or (not p46) p78 p9) (or (not p62) (not p43) (not p32)) (or (not p17) (not p79) p35) (or p28 (not p78) p29) (or (not p56) p72 p44) (or (not p49) (not p10) (not p66)) (or p16 (not p13) (not p28)) (or (not p43) p16 (not p38)) (or p0 (not p39) p23) (or p16 (not p68) (not p32)) (or p54 p12 (not p27)) (or p2 p66 (not p16)) (or p32 (not p23) p23) (or (not p73) p59 p26) (or (not p63) (not p19) p5) (or p15 (not p14) (not p70)) (or p51 p23 (not p68)) (or (not p57) p30 (not p27)) (or (not p62) p72 (not p60)) (or (not p47) (not p25) (not p42)) (or p28 p20 (not p25)) (or (not p51) p69 p10) (or (not p62) (not p11) (not p12)) (or p67 p33 p27) (or (not p30) (not p46) p71) (or p34 p33 p19) (or p47 p8 (not p6)) (or p4 p55 (not p61)) (or p13 p16 (not p50)) (or (not p52) (not p70) (not p32)) (or (not p69) (not p2) (not p65)) (or p76 (not p23) p76) (or (not p11) p17 (not p58)) (or (not p60) p30 p71) (or p34 p49 (not p7)) (or p27 p26 p6) (or p71 p0 (not p67)) (or (not p59) p19 p6) (or p11 p37 p68) (or (not p58) (not p14) p45) (or (not p71) p37 (not p24)) (or p68 (not p1) (not p59)) (or (not p65) p44 (not p17)))
)
(check-sat)
(get-model)
